(declare-fun my_mcm (Int Int) Int)
(declare-fun my_foo (Int Int Int Int) Int)
(declare-const m (Array Int Int Int))
(push)
(assert
(exists ((i Int) (j Int) (k Int) (min Int) (r Int) (
(and (>= k j) (= r min)
)
)